
  12    4
  10   10   10   10

   0   0   0   0   0   4 2 3 4 5 
   2  10  10  10  10   4 11 10 8 6 
   7  10  10  10  10   3 10 9 7 
   3  10  10  10  10   2 9 8 
   1  10  10  10  10   2 8 7 
   7  10  10  10  10   1 7 
   7  10  10  10  10   1 12
  10  10  10  10  10   1 12
   8  10  10  10  10   1 12
   1  10  10  10  10   1 12
   7  10  10  10  10   1 12
   0   0   0   0   0   0 
